/*Objective Function */
min: 12*S1 + 14*S2 + 16*S3 + 18*S4 + 10*D1 + 12*D2 + 14*D3 + 16*D4 + 2*L1 +2*L2 + 2*L3;
/*constraints*/
S1 + D1- L1 = 150;
S2 + D2 + L1 - L2 = 200;
S3 + D3 + L2 - L3 = 250;
S4 + D4 + L3 = 150;

0 <= S1 <= 200;
0 <= S2 <= 200;
0 <= S3 <= 200;
0 <= S4 <= 200;

S1 - 200*R1 >=0;
S2 - 200*R2 >=0;
S3 - 200*R3 >=0;
S4 - 200*R4 >=0;

D1 - 1000*R1 <= 0;
D2 - 1000*R2 <= 0;
D3 - 1000*R3 <= 0;
D4 - 1000*R4 <= 0;
0 <= R1 <= 1;
0 <= R2 <= 1;
0 <= R3 <= 1;
0 <= R4 <= 1;
Int R1, R2, R3, R4;
